submitit INFO (2023-05-02 18:51:34,281) - Starting with JobEnvironment(job_id=27748, hostname=cpunode2, local_rank=1(5), node=0(1), global_rank=1(5))
submitit INFO (2023-05-02 18:51:34,281) - Loading pickle: /h/30/pashootan/Matrix-Mult-CP/src/../logs/4/2x2x3_11_May02_18:51:30/27748_submitted.pkl
 ! --------------------------------------------------- CP Optimizer 22.1.1.0 --
 ! Satisfiability problem - 176 variables, 144 constraints
 ! TimeLimit            = 7200
 ! Workers              = 8
 ! LogPeriod            = 10000000
 ! RandomSeed           = 3547
 ! Initial process time : 0.01s (0.01s extraction + 0.00s propagation)
 !  . Log search space  : 279.0 (before), 279.0 (after)
 !  . Memory usage      : 821.3 kB (before), 821.3 kB (after)
 ! Using parallel search with 8 workers.
 ! ----------------------------------------------------------------------------
 !               Branches  Non-fixed    W       Branch decision
 *                  6021k  71.81s       5         1  = U4_3
 ! ----------------------------------------------------------------------------
 ! Search completed, 1 solution found.
 ! ----------------------------------------------------------------------------
 ! Number of branches     : 47106585
 ! Number of fails        : 21830061
 ! Total memory usage     : 50.8 MB (50.7 MB CP Optimizer + 0.1 MB Concert)
 ! Time spent in solve    : 71.82s (71.81s engine + 0.01s extraction)
 ! Search speed (br. / s) : 655989.2
 ! ----------------------------------------------------------------------------
Feasible
Model is valid
Saving solution to: /h/30/pashootan/Matrix-Mult-CP/logs/4/2x2x3_11_May02_18:51:30/27748_1_solution.txt
Saving stats to: /h/30/pashootan/Matrix-Mult-CP/logs/4/2x2x3_11_May02_18:51:30/27748_1_stats.csv
submitit INFO (2023-05-02 18:52:46,540) - Job completed successfully
